(declare-fun temp9839_1 () (_ BitVec 64))
(declare-fun var405370 () (_ BitVec 64))
(declare-fun temp9839_2 () (_ BitVec 64))
(declare-fun temp9839_3 () (_ BitVec 64))
(declare-fun var602599 () (_ BitVec 64))
(declare-fun k!0 () Bool)
(declare-fun temp9838_4 () (_ BitVec 64))
(declare-fun temp9839_5 () (_ BitVec 64))
(declare-fun temp9839_4 () (_ BitVec 64))
(declare-fun temp9839_7 () (_ BitVec 64))
(declare-fun temp9839_6 () (_ BitVec 64))
(declare-fun temp9839_9 () (_ BitVec 64))
(declare-fun temp9839_8 () (_ BitVec 64))
(declare-fun temp9839_10 () (_ BitVec 64))
(declare-fun var405371 () (_ BitVec 64))
(declare-fun temp9839_11 () (_ BitVec 64))
(declare-fun var77025 () (_ BitVec 64))
(declare-fun var1060894 () (_ BitVec 64))
(declare-fun temp9839_12 () (_ BitVec 64))
(declare-fun var1124837 () (_ BitVec 64))
(declare-fun var1183712 () (_ BitVec 64))
(declare-fun var1183711 () (_ BitVec 64))
(declare-fun var1124850 () (_ BitVec 64))
(declare-fun temp9839_13 () (_ BitVec 64))
(declare-fun var1249248 () (_ BitVec 64))
(declare-fun var1249247 () (_ BitVec 64))
(declare-fun var1124854 () (_ BitVec 64))
(declare-fun temp9839_14 () (_ BitVec 64))
(declare-fun var1124864 () (_ BitVec 64))
(declare-fun temp9839_15 () (_ BitVec 64))
(declare-fun var77080 () (_ BitVec 64))
(declare-fun temp9839_16 () (_ BitVec 64))
(declare-fun temp9839_17 () (_ BitVec 64))
(declare-fun var77208 () (_ BitVec 64))
(declare-fun var77212 () (_ BitVec 64))
(declare-fun temp9839_18 () (_ BitVec 64))
(declare-fun var77215 () (_ BitVec 64))
(declare-fun temp9839_19 () (_ BitVec 64))
(declare-fun var77003 () (_ BitVec 64))
(declare-fun temp9839_21 () (_ BitVec 64))
(declare-fun var77238 () (_ BitVec 64))
(declare-fun temp9839_22 () (_ BitVec 64))
(declare-fun var77239 () (_ BitVec 64))
(declare-fun temp9839_23 () (_ BitVec 64))
(assert (= temp9839_1 #x0000000000000000))
(assert (= var405370 temp9839_1))
(assert (= temp9839_2 #x0000000000000000))
(assert (= var602599
   (ite (= temp9838_4 temp9839_2) #x0000000000000001 #x0000000000000000)))
(assert (= temp9839_3 #x0000000000000001))
(assert (= var602599 temp9839_3))
(assert (= temp9839_5 #x0000000000000000))
(assert (= temp9839_4 temp9839_5))
(assert (= temp9839_7 #x0000000000000001))
(assert (= temp9839_6 temp9839_7))
(assert (= temp9839_9 #x0000000000000001))
(assert (= temp9839_8 temp9839_9))
(assert (= temp9839_10 #x0000000000000001))
(assert (= var405371 (bvadd var405370 temp9839_10)))
(assert (= temp9839_11 #x0000000000000000))
(assert (= var77025 temp9839_11))
(assert (= var1060894 var77025))
(assert (= temp9839_12 #x0000000000000000))
(assert (= var1124837 temp9839_12))
(assert (= var1183712 var1124837))
(assert (= var1183711 var1183712))
(assert (= var1124850 var1183711))
(assert (= temp9839_13 #x0000000000000000))
(assert (= var1249248 temp9839_13))
(assert (= var1249247 var1249248))
(assert (= var1124854 var1249247))
(assert (= temp9839_14 #x0000000000000001))
(assert (= var1124864 (bvadd var1124837 temp9839_14)))
(assert (= temp9839_15 #x0000000000000000))
(assert (= var77080
   (ite (= var77025 temp9839_15) #x0000000000000001 #x0000000000000000)))
(assert (= temp9839_16 #x0000000000000001))
(assert (= var77080 temp9839_16))
(assert (= temp9839_17 #x0000000000000000))
(assert (= var77208 temp9839_17))
(assert (= var77212 var77208))
(assert (= temp9839_18 #x0000000000000000))
(assert (= var77215
   (ite (= var77212 temp9839_18) #x0000000000000001 #x0000000000000000)))
(assert (= temp9839_19 #x0000000000000001))
(assert (= var77003 (bvadd var77025 temp9839_19)))
(assert (= temp9839_21 #x0000000000000014))
(assert (= var77238 temp9839_21))
(assert (= temp9839_22 #x0000000000000014))
(assert (= var77239
   (ite (= var77238 temp9839_22) #x0000000000000001 #x0000000000000000)))
(assert (= temp9839_23 #x0000000000000001))
(assert (= var77239 temp9839_23))
(model-add temp9839_1 () (_ BitVec 64) #x0000000000000000)
(model-add var405370 () (_ BitVec 64) #x0000000000000000)
(model-add temp9839_2 () (_ BitVec 64) #x0000000000000000)
(model-add temp9839_3 () (_ BitVec 64) #x0000000000000001)
(model-add var602599 () (_ BitVec 64) #x0000000000000001)
(model-del k!0)
(model-add temp9838_4
           ()
           (_ BitVec 64)
           (ite k!0 #x0000000000000000 (bvnot #x0000000000000000)))

